data/MCDM/NO_CORR/GEN_FROM_60/14_ITEMS_1000_GEN/K5014W09.KNP.mps
NAME          BLANK   
ROWS
 N  OBJROW
 L  R0000000
COLUMNS
    C0000000  OBJROW     -736.         R0000000  606.        
    C0000001  OBJROW     -10.          R0000000  543.        
    C0000002  OBJROW     -56.          R0000000  764.        
    C0000003  OBJROW     -216.         R0000000  424.        
    C0000004  OBJROW     -964.         R0000000  979.        
    C0000005  OBJROW     -244.         R0000000  369.        
    C0000006  OBJROW     -866.         R0000000  150.        
    C0000007  OBJROW     -584.         R0000000  653.        
    C0000008  OBJROW     -786.         R0000000  568.        
    C0000009  OBJROW     -288.         R0000000  102.        
    C0000010  OBJROW     -953.         R0000000  223.        
    C0000011  OBJROW     -577.         R0000000  945.        
    C0000012  OBJROW     -432.         R0000000  492.        
    C0000013  OBJROW     -785.         R0000000  431.        
RHS
    RHS       R0000000  14716.      
BOUNDS
 BV BOUND     C0000000  1.          
 BV BOUND     C0000001  1.          
 BV BOUND     C0000002  1.          
 BV BOUND     C0000003  1.          
 BV BOUND     C0000004  1.          
 BV BOUND     C0000005  1.          
 BV BOUND     C0000006  1.          
 BV BOUND     C0000007  1.          
 BV BOUND     C0000008  1.          
 BV BOUND     C0000009  1.          
 BV BOUND     C0000010  1.          
 BV BOUND     C0000011  1.          
 BV BOUND     C0000012  1.          
 BV BOUND     C0000013  1.          
ENDATA
