data/MCDM/NO_CORR/GEN_FROM_60/14_ITEMS_1000_GEN/K5014W09.KNP.txt
N 14
M 15
LC 14
LC 15
LC 16
LC 17
LC 18
LC 19
LC 20
LC 21
LC 22
LC 23
LC 24
LC 25
LC 26
LC 27
LR 1
LR 2
LR 3
LR 4
LR 5
LR 6
LR 7
LR 8
LR 9
LR 10
LR 11
LR 12
LR 13
LR 14
LR 15
LO -736
LO -10
LO -56
LO -216
LO -964
LO -244
LO -866
LO -584
LO -786
LO -288
LO -953
LO -577
LO -432
LO -785
OS 1
IC 874
IC 721
IC 472
IC 327
IC 553
IC 553
IC 401
IC 500
IC 493
IC 381
IC 621
IC 253
IC 227
IC 215
IB 3296
